p cnf 212 1260
1 -96 0
1 -97 0
96 -96 0
97 -97 0
20 -102 0
20 -103 0
102 -102 0
103 -103 0
39 -108 0
39 -109 0
108 -108 0
109 -109 0
58 -114 0
58 -115 0
114 -114 0
115 -115 0
77 -120 0
77 -121 0
120 -120 0
121 -121 0
2 -96 0
2 -97 0
96 -96 0
97 -97 0
21 -102 0
21 -103 0
102 -102 0
103 -103 0
40 -108 0
40 -109 0
108 -108 0
109 -109 0
59 -114 0
59 -115 0
114 -114 0
115 -115 0
78 -120 0
78 -121 0
120 -120 0
121 -121 0
3 -96 0
3 -97 0
96 -96 0
97 -97 0
22 -102 0
22 -103 0
102 -102 0
103 -103 0
41 -108 0
41 -109 0
108 -108 0
109 -109 0
60 -114 0
60 -115 0
114 -114 0
115 -115 0
79 -120 0
79 -121 0
120 -120 0
121 -121 0
4 -126 -96 0
-4 126 -96 0
4 126 -97 0
-4 -126 -97 0
23 -126 -102 0
-23 126 -102 0
23 126 -103 0
-23 -126 -103 0
42 -126 -108 0
-42 126 -108 0
42 126 -109 0
-42 -126 -109 0
61 -126 -114 0
-61 126 -114 0
61 126 -115 0
-61 -126 -115 0
80 -126 -120 0
-80 126 -120 0
80 126 -121 0
-80 -126 -121 0
5 -127 -96 0
-5 127 -96 0
5 127 -97 0
-5 -127 -97 0
24 -127 -102 0
-24 127 -102 0
24 127 -103 0
-24 -127 -103 0
43 -127 -108 0
-43 127 -108 0
43 127 -109 0
-43 -127 -109 0
62 -127 -114 0
-62 127 -114 0
62 127 -115 0
-62 -127 -115 0
81 -127 -120 0
-81 127 -120 0
81 127 -121 0
-81 -127 -121 0
6 -96 0
6 -97 0
96 -96 0
97 -97 0
25 -102 0
25 -103 0
102 -102 0
103 -103 0
44 -108 0
44 -109 0
108 -108 0
109 -109 0
63 -114 0
63 -115 0
114 -114 0
115 -115 0
82 -120 0
82 -121 0
120 -120 0
121 -121 0
7 -96 0
7 -97 0
96 -96 0
97 -97 0
26 -102 0
26 -103 0
102 -102 0
103 -103 0
45 -108 0
45 -109 0
108 -108 0
109 -109 0
64 -114 0
64 -115 0
114 -114 0
115 -115 0
83 -120 0
83 -121 0
120 -120 0
121 -121 0
8 -128 -96 0
-8 128 -96 0
8 128 -97 0
-8 -128 -97 0
27 -128 -102 0
-27 128 -102 0
27 128 -103 0
-27 -128 -103 0
46 -128 -108 0
-46 128 -108 0
46 128 -109 0
-46 -128 -109 0
65 -128 -114 0
-65 128 -114 0
65 128 -115 0
-65 -128 -115 0
84 -128 -120 0
-84 128 -120 0
84 128 -121 0
-84 -128 -121 0
9 -129 -96 0
-9 129 -96 0
9 129 -97 0
-9 -129 -97 0
28 -129 -102 0
-28 129 -102 0
28 129 -103 0
-28 -129 -103 0
47 -129 -108 0
-47 129 -108 0
47 129 -109 0
-47 -129 -109 0
66 -129 -114 0
-66 129 -114 0
66 129 -115 0
-66 -129 -115 0
85 -129 -120 0
-85 129 -120 0
85 129 -121 0
-85 -129 -121 0
10 -130 -96 0
-10 130 -96 0
10 130 -97 0
-10 -130 -97 0
29 -130 -102 0
-29 130 -102 0
29 130 -103 0
-29 -130 -103 0
48 -130 -108 0
-48 130 -108 0
48 130 -109 0
-48 -130 -109 0
67 -130 -114 0
-67 130 -114 0
67 130 -115 0
-67 -130 -115 0
86 -130 -120 0
-86 130 -120 0
86 130 -121 0
-86 -130 -121 0
11 -96 0
11 -97 0
96 -96 0
97 -97 0
30 -102 0
30 -103 0
102 -102 0
103 -103 0
49 -108 0
49 -109 0
108 -108 0
109 -109 0
68 -114 0
68 -115 0
114 -114 0
115 -115 0
87 -120 0
87 -121 0
120 -120 0
121 -121 0
12 -96 0
12 -97 0
96 -96 0
97 -97 0
31 -102 0
31 -103 0
102 -102 0
103 -103 0
50 -108 0
50 -109 0
108 -108 0
109 -109 0
69 -114 0
69 -115 0
114 -114 0
115 -115 0
88 -120 0
88 -121 0
120 -120 0
121 -121 0
13 -96 0
13 -97 0
96 -96 0
97 -97 0
32 -102 0
32 -103 0
102 -102 0
103 -103 0
51 -108 0
51 -109 0
108 -108 0
109 -109 0
70 -114 0
70 -115 0
114 -114 0
115 -115 0
89 -120 0
89 -121 0
120 -120 0
121 -121 0
14 -96 0
14 -97 0
96 -96 0
97 -97 0
33 -102 0
33 -103 0
102 -102 0
103 -103 0
52 -108 0
52 -109 0
108 -108 0
109 -109 0
71 -114 0
71 -115 0
114 -114 0
115 -115 0
90 -120 0
90 -121 0
120 -120 0
121 -121 0
15 -131 -96 0
-15 131 -96 0
15 131 -97 0
-15 -131 -97 0
34 -131 -102 0
-34 131 -102 0
34 131 -103 0
-34 -131 -103 0
53 -131 -108 0
-53 131 -108 0
53 131 -109 0
-53 -131 -109 0
72 -131 -114 0
-72 131 -114 0
72 131 -115 0
-72 -131 -115 0
91 -131 -120 0
-91 131 -120 0
91 131 -121 0
-91 -131 -121 0
16 -96 0
16 -97 0
96 -96 0
97 -97 0
35 -102 0
35 -103 0
102 -102 0
103 -103 0
54 -108 0
54 -109 0
108 -108 0
109 -109 0
73 -114 0
73 -115 0
114 -114 0
115 -115 0
92 -120 0
92 -121 0
120 -120 0
121 -121 0
17 -96 0
17 -97 0
96 -96 0
97 -97 0
36 -102 0
36 -103 0
102 -102 0
103 -103 0
55 -108 0
55 -109 0
108 -108 0
109 -109 0
74 -114 0
74 -115 0
114 -114 0
115 -115 0
93 -120 0
93 -121 0
120 -120 0
121 -121 0
-18 -96 0
-18 -97 0
96 -96 0
97 -97 0
-37 -102 0
-37 -103 0
102 -102 0
103 -103 0
-56 -108 0
-56 -109 0
108 -108 0
109 -109 0
-75 -114 0
-75 -115 0
114 -114 0
115 -115 0
-94 -120 0
-94 -121 0
120 -120 0
121 -121 0
-19 -96 0
-19 -97 0
96 -96 0
97 -97 0
-38 -102 0
-38 -103 0
102 -102 0
103 -103 0
-57 -108 0
-57 -109 0
108 -108 0
109 -109 0
-76 -114 0
-76 -115 0
114 -114 0
115 -115 0
-95 -120 0
-95 -121 0
120 -120 0
121 -121 0
-183 96 0
183 -96 0
-184 97 0
183 -97 0
-183 -96 0
-184 -97 0
-189 96 183 0
189 -96 0
189 -183 0
-190 97 184 0
190 -97 0
190 -184 0
-189 -102 0
-190 -103 0
-195 102 189 0
195 -102 0
195 -189 0
-196 103 190 0
196 -103 0
196 -190 0
-195 -108 0
-196 -109 0
-201 108 195 0
201 -108 0
201 -195 0
-202 109 196 0
202 -109 0
202 -196 0
-201 -114 0
-202 -115 0
-207 114 201 0
207 -114 0
207 -201 0
-208 115 202 0
208 -115 0
208 -202 0
-207 -120 0
-208 -121 0
207 0
208 0
1 -98 0
1 -99 0
98 -98 0
99 -99 0
20 -104 0
20 -105 0
104 -104 0
105 -105 0
39 -110 0
39 -111 0
110 -110 0
111 -111 0
58 -116 0
58 -117 0
116 -116 0
117 -117 0
77 -122 0
77 -123 0
122 -122 0
123 -123 0
2 -98 0
2 -99 0
98 -98 0
99 -99 0
21 -104 0
21 -105 0
104 -104 0
105 -105 0
40 -110 0
40 -111 0
110 -110 0
111 -111 0
59 -116 0
59 -117 0
116 -116 0
117 -117 0
78 -122 0
78 -123 0
122 -122 0
123 -123 0
3 -98 0
3 -99 0
98 -98 0
99 -99 0
22 -104 0
22 -105 0
104 -104 0
105 -105 0
41 -110 0
41 -111 0
110 -110 0
111 -111 0
60 -116 0
60 -117 0
116 -116 0
117 -117 0
79 -122 0
79 -123 0
122 -122 0
123 -123 0
4 -132 -98 0
-4 132 -98 0
4 132 -99 0
-4 -132 -99 0
23 -132 -104 0
-23 132 -104 0
23 132 -105 0
-23 -132 -105 0
42 -132 -110 0
-42 132 -110 0
42 132 -111 0
-42 -132 -111 0
61 -132 -116 0
-61 132 -116 0
61 132 -117 0
-61 -132 -117 0
80 -132 -122 0
-80 132 -122 0
80 132 -123 0
-80 -132 -123 0
5 -133 -98 0
-5 133 -98 0
5 133 -99 0
-5 -133 -99 0
24 -133 -104 0
-24 133 -104 0
24 133 -105 0
-24 -133 -105 0
43 -133 -110 0
-43 133 -110 0
43 133 -111 0
-43 -133 -111 0
62 -133 -116 0
-62 133 -116 0
62 133 -117 0
-62 -133 -117 0
81 -133 -122 0
-81 133 -122 0
81 133 -123 0
-81 -133 -123 0
6 -98 0
6 -99 0
98 -98 0
99 -99 0
25 -104 0
25 -105 0
104 -104 0
105 -105 0
44 -110 0
44 -111 0
110 -110 0
111 -111 0
63 -116 0
63 -117 0
116 -116 0
117 -117 0
82 -122 0
82 -123 0
122 -122 0
123 -123 0
7 -98 0
7 -99 0
98 -98 0
99 -99 0
26 -104 0
26 -105 0
104 -104 0
105 -105 0
45 -110 0
45 -111 0
110 -110 0
111 -111 0
64 -116 0
64 -117 0
116 -116 0
117 -117 0
83 -122 0
83 -123 0
122 -122 0
123 -123 0
8 -134 -98 0
-8 134 -98 0
8 134 -99 0
-8 -134 -99 0
27 -134 -104 0
-27 134 -104 0
27 134 -105 0
-27 -134 -105 0
46 -134 -110 0
-46 134 -110 0
46 134 -111 0
-46 -134 -111 0
65 -134 -116 0
-65 134 -116 0
65 134 -117 0
-65 -134 -117 0
84 -134 -122 0
-84 134 -122 0
84 134 -123 0
-84 -134 -123 0
9 -135 -98 0
-9 135 -98 0
9 135 -99 0
-9 -135 -99 0
28 -135 -104 0
-28 135 -104 0
28 135 -105 0
-28 -135 -105 0
47 -135 -110 0
-47 135 -110 0
47 135 -111 0
-47 -135 -111 0
66 -135 -116 0
-66 135 -116 0
66 135 -117 0
-66 -135 -117 0
85 -135 -122 0
-85 135 -122 0
85 135 -123 0
-85 -135 -123 0
10 -136 -98 0
-10 136 -98 0
10 136 -99 0
-10 -136 -99 0
29 -136 -104 0
-29 136 -104 0
29 136 -105 0
-29 -136 -105 0
48 -136 -110 0
-48 136 -110 0
48 136 -111 0
-48 -136 -111 0
67 -136 -116 0
-67 136 -116 0
67 136 -117 0
-67 -136 -117 0
86 -136 -122 0
-86 136 -122 0
86 136 -123 0
-86 -136 -123 0
11 -98 0
11 -99 0
98 -98 0
99 -99 0
30 -104 0
30 -105 0
104 -104 0
105 -105 0
49 -110 0
49 -111 0
110 -110 0
111 -111 0
68 -116 0
68 -117 0
116 -116 0
117 -117 0
87 -122 0
87 -123 0
122 -122 0
123 -123 0
12 -98 0
12 -99 0
98 -98 0
99 -99 0
31 -104 0
31 -105 0
104 -104 0
105 -105 0
50 -110 0
50 -111 0
110 -110 0
111 -111 0
69 -116 0
69 -117 0
116 -116 0
117 -117 0
88 -122 0
88 -123 0
122 -122 0
123 -123 0
13 -98 0
13 -99 0
98 -98 0
99 -99 0
32 -104 0
32 -105 0
104 -104 0
105 -105 0
51 -110 0
51 -111 0
110 -110 0
111 -111 0
70 -116 0
70 -117 0
116 -116 0
117 -117 0
89 -122 0
89 -123 0
122 -122 0
123 -123 0
14 -98 0
14 -99 0
98 -98 0
99 -99 0
33 -104 0
33 -105 0
104 -104 0
105 -105 0
52 -110 0
52 -111 0
110 -110 0
111 -111 0
71 -116 0
71 -117 0
116 -116 0
117 -117 0
90 -122 0
90 -123 0
122 -122 0
123 -123 0
15 -137 -98 0
-15 137 -98 0
15 137 -99 0
-15 -137 -99 0
34 -137 -104 0
-34 137 -104 0
34 137 -105 0
-34 -137 -105 0
53 -137 -110 0
-53 137 -110 0
53 137 -111 0
-53 -137 -111 0
72 -137 -116 0
-72 137 -116 0
72 137 -117 0
-72 -137 -117 0
91 -137 -122 0
-91 137 -122 0
91 137 -123 0
-91 -137 -123 0
16 -98 0
16 -99 0
98 -98 0
99 -99 0
35 -104 0
35 -105 0
104 -104 0
105 -105 0
54 -110 0
54 -111 0
110 -110 0
111 -111 0
73 -116 0
73 -117 0
116 -116 0
117 -117 0
92 -122 0
92 -123 0
122 -122 0
123 -123 0
17 -98 0
17 -99 0
98 -98 0
99 -99 0
36 -104 0
36 -105 0
104 -104 0
105 -105 0
55 -110 0
55 -111 0
110 -110 0
111 -111 0
74 -116 0
74 -117 0
116 -116 0
117 -117 0
93 -122 0
93 -123 0
122 -122 0
123 -123 0
18 -138 -98 0
-18 138 -98 0
18 138 -99 0
-18 -138 -99 0
37 -138 -104 0
-37 138 -104 0
37 138 -105 0
-37 -138 -105 0
56 -138 -110 0
-56 138 -110 0
56 138 -111 0
-56 -138 -111 0
75 -138 -116 0
-75 138 -116 0
75 138 -117 0
-75 -138 -117 0
94 -138 -122 0
-94 138 -122 0
94 138 -123 0
-94 -138 -123 0
19 -139 -98 0
-19 139 -98 0
19 139 -99 0
-19 -139 -99 0
38 -139 -104 0
-38 139 -104 0
38 139 -105 0
-38 -139 -105 0
57 -139 -110 0
-57 139 -110 0
57 139 -111 0
-57 -139 -111 0
76 -139 -116 0
-76 139 -116 0
76 139 -117 0
-76 -139 -117 0
95 -139 -122 0
-95 139 -122 0
95 139 -123 0
-95 -139 -123 0
-185 98 0
185 -98 0
-186 99 0
185 -99 0
-185 -98 0
-186 -99 0
-191 98 185 0
191 -98 0
191 -185 0
-192 99 186 0
192 -99 0
192 -186 0
-191 -104 0
-192 -105 0
-197 104 191 0
197 -104 0
197 -191 0
-198 105 192 0
198 -105 0
198 -192 0
-197 -110 0
-198 -111 0
-203 110 197 0
203 -110 0
203 -197 0
-204 111 198 0
204 -111 0
204 -198 0
-203 -116 0
-204 -117 0
-209 116 203 0
209 -116 0
209 -203 0
-210 117 204 0
210 -117 0
210 -204 0
-209 -122 0
-210 -123 0
209 0
210 0
1 -100 0
1 -101 0
100 -100 0
101 -101 0
20 -106 0
20 -107 0
106 -106 0
107 -107 0
39 -112 0
39 -113 0
112 -112 0
113 -113 0
58 -118 0
58 -119 0
118 -118 0
119 -119 0
77 -124 0
77 -125 0
124 -124 0
125 -125 0
2 -100 0
2 -101 0
100 -100 0
101 -101 0
21 -106 0
21 -107 0
106 -106 0
107 -107 0
40 -112 0
40 -113 0
112 -112 0
113 -113 0
59 -118 0
59 -119 0
118 -118 0
119 -119 0
78 -124 0
78 -125 0
124 -124 0
125 -125 0
3 -100 0
3 -101 0
100 -100 0
101 -101 0
22 -106 0
22 -107 0
106 -106 0
107 -107 0
41 -112 0
41 -113 0
112 -112 0
113 -113 0
60 -118 0
60 -119 0
118 -118 0
119 -119 0
79 -124 0
79 -125 0
124 -124 0
125 -125 0
4 -140 -100 0
-4 140 -100 0
4 140 -101 0
-4 -140 -101 0
23 -140 -106 0
-23 140 -106 0
23 140 -107 0
-23 -140 -107 0
42 -140 -112 0
-42 140 -112 0
42 140 -113 0
-42 -140 -113 0
61 -140 -118 0
-61 140 -118 0
61 140 -119 0
-61 -140 -119 0
80 -140 -124 0
-80 140 -124 0
80 140 -125 0
-80 -140 -125 0
-5 -100 0
-5 -101 0
100 -100 0
101 -101 0
-24 -106 0
-24 -107 0
106 -106 0
107 -107 0
-43 -112 0
-43 -113 0
112 -112 0
113 -113 0
-62 -118 0
-62 -119 0
118 -118 0
119 -119 0
-81 -124 0
-81 -125 0
124 -124 0
125 -125 0
6 -100 0
6 -101 0
100 -100 0
101 -101 0
25 -106 0
25 -107 0
106 -106 0
107 -107 0
44 -112 0
44 -113 0
112 -112 0
113 -113 0
63 -118 0
63 -119 0
118 -118 0
119 -119 0
82 -124 0
82 -125 0
124 -124 0
125 -125 0
7 -141 -100 0
-7 141 -100 0
7 141 -101 0
-7 -141 -101 0
26 -141 -106 0
-26 141 -106 0
26 141 -107 0
-26 -141 -107 0
45 -141 -112 0
-45 141 -112 0
45 141 -113 0
-45 -141 -113 0
64 -141 -118 0
-64 141 -118 0
64 141 -119 0
-64 -141 -119 0
83 -141 -124 0
-83 141 -124 0
83 141 -125 0
-83 -141 -125 0
8 -100 0
8 -101 0
100 -100 0
101 -101 0
27 -106 0
27 -107 0
106 -106 0
107 -107 0
46 -112 0
46 -113 0
112 -112 0
113 -113 0
65 -118 0
65 -119 0
118 -118 0
119 -119 0
84 -124 0
84 -125 0
124 -124 0
125 -125 0
-9 -100 0
-9 -101 0
100 -100 0
101 -101 0
-28 -106 0
-28 -107 0
106 -106 0
107 -107 0
-47 -112 0
-47 -113 0
112 -112 0
113 -113 0
-66 -118 0
-66 -119 0
118 -118 0
119 -119 0
-85 -124 0
-85 -125 0
124 -124 0
125 -125 0
10 -100 0
10 -101 0
100 -100 0
101 -101 0
29 -106 0
29 -107 0
106 -106 0
107 -107 0
48 -112 0
48 -113 0
112 -112 0
113 -113 0
67 -118 0
67 -119 0
118 -118 0
119 -119 0
86 -124 0
86 -125 0
124 -124 0
125 -125 0
11 -100 0
11 -101 0
100 -100 0
101 -101 0
30 -106 0
30 -107 0
106 -106 0
107 -107 0
49 -112 0
49 -113 0
112 -112 0
113 -113 0
68 -118 0
68 -119 0
118 -118 0
119 -119 0
87 -124 0
87 -125 0
124 -124 0
125 -125 0
12 -100 0
12 -101 0
100 -100 0
101 -101 0
31 -106 0
31 -107 0
106 -106 0
107 -107 0
50 -112 0
50 -113 0
112 -112 0
113 -113 0
69 -118 0
69 -119 0
118 -118 0
119 -119 0
88 -124 0
88 -125 0
124 -124 0
125 -125 0
13 -100 0
13 -101 0
100 -100 0
101 -101 0
32 -106 0
32 -107 0
106 -106 0
107 -107 0
51 -112 0
51 -113 0
112 -112 0
113 -113 0
70 -118 0
70 -119 0
118 -118 0
119 -119 0
89 -124 0
89 -125 0
124 -124 0
125 -125 0
14 -142 -100 0
-14 142 -100 0
14 142 -101 0
-14 -142 -101 0
33 -142 -106 0
-33 142 -106 0
33 142 -107 0
-33 -142 -107 0
52 -142 -112 0
-52 142 -112 0
52 142 -113 0
-52 -142 -113 0
71 -142 -118 0
-71 142 -118 0
71 142 -119 0
-71 -142 -119 0
90 -142 -124 0
-90 142 -124 0
90 142 -125 0
-90 -142 -125 0
15 -100 0
15 -101 0
100 -100 0
101 -101 0
34 -106 0
34 -107 0
106 -106 0
107 -107 0
53 -112 0
53 -113 0
112 -112 0
113 -113 0
72 -118 0
72 -119 0
118 -118 0
119 -119 0
91 -124 0
91 -125 0
124 -124 0
125 -125 0
16 -100 0
16 -101 0
100 -100 0
101 -101 0
35 -106 0
35 -107 0
106 -106 0
107 -107 0
54 -112 0
54 -113 0
112 -112 0
113 -113 0
73 -118 0
73 -119 0
118 -118 0
119 -119 0
92 -124 0
92 -125 0
124 -124 0
125 -125 0
17 -143 -100 0
-17 143 -100 0
17 143 -101 0
-17 -143 -101 0
36 -143 -106 0
-36 143 -106 0
36 143 -107 0
-36 -143 -107 0
55 -143 -112 0
-55 143 -112 0
55 143 -113 0
-55 -143 -113 0
74 -143 -118 0
-74 143 -118 0
74 143 -119 0
-74 -143 -119 0
93 -143 -124 0
-93 143 -124 0
93 143 -125 0
-93 -143 -125 0
18 -144 -100 0
-18 144 -100 0
18 144 -101 0
-18 -144 -101 0
37 -144 -106 0
-37 144 -106 0
37 144 -107 0
-37 -144 -107 0
56 -144 -112 0
-56 144 -112 0
56 144 -113 0
-56 -144 -113 0
75 -144 -118 0
-75 144 -118 0
75 144 -119 0
-75 -144 -119 0
94 -144 -124 0
-94 144 -124 0
94 144 -125 0
-94 -144 -125 0
19 -145 -100 0
-19 145 -100 0
19 145 -101 0
-19 -145 -101 0
38 -145 -106 0
-38 145 -106 0
38 145 -107 0
-38 -145 -107 0
57 -145 -112 0
-57 145 -112 0
57 145 -113 0
-57 -145 -113 0
76 -145 -118 0
-76 145 -118 0
76 145 -119 0
-76 -145 -119 0
95 -145 -124 0
-95 145 -124 0
95 145 -125 0
-95 -145 -125 0
-187 100 0
187 -100 0
-188 101 0
187 -101 0
-187 -100 0
-188 -101 0
-193 100 187 0
193 -100 0
193 -187 0
-194 101 188 0
194 -101 0
194 -188 0
-193 -106 0
-194 -107 0
-199 106 193 0
199 -106 0
199 -193 0
-200 107 194 0
200 -107 0
200 -194 0
-199 -112 0
-200 -113 0
-205 112 199 0
205 -112 0
205 -199 0
-206 113 200 0
206 -113 0
206 -200 0
-205 -118 0
-206 -119 0
-211 118 205 0
211 -118 0
211 -205 0
-212 119 206 0
212 -119 0
212 -206 0
-211 -124 0
-212 -125 0
211 0
212 0
